datasets/2-dimensional/CL_05_25_06.vbp
2
1000 1000 
25
80 34 30
47 36 72
56 75 4
49 69 88
67 35 54
28 88 64
97 71 90
92 76 26
79 68 94
74 40 28
46 83 72
59 90 49
56 51 54
79 58 19
44 78 28
42 28 61
41 75 84
33 34 23
33 48 67
84 58 53
26 31 54
28 34 16
55 83 9
99 70 54
27 62 77
