2-dimensional/CL_05_25_06.txt
1000 1000 
0 30 80 34 
1 72 47 36 
2 4 56 75 
3 88 49 69 
4 54 67 35 
5 64 28 88 
6 90 97 71 
7 26 92 76 
8 94 79 68 
9 28 74 40 
10 72 46 83 
11 49 59 90 
12 54 56 51 
13 19 79 58 
14 28 44 78 
15 61 42 28 
16 84 41 75 
17 23 33 34 
18 67 33 48 
19 53 84 58 
20 54 26 31 
21 16 28 34 
22 9 55 83 
23 54 99 70 
24 77 27 62 
